2
1000 2
50
259 1 1
388 1 1
261 1 1
262 1 2
264 1 1
265 1 1
268 1 1
269 1 1
270 1 1
276 1 2
278 1 1
281 1 3
282 1 2
283 1 1
285 1 1
286 1 1
389 1 1
416 1 1
496 1 1
290 1 1
422 1 1
433 1 1
296 1 1
301 1 1
302 1 1
432 1 1
305 1 1
327 1 1
328 1 1
396 1 1
334 1 1
335 1 1
483 1 1
340 1 1
462 1 1
463 1 1
347 1 1
352 1 1
355 1 1
484 1 1
358 1 1
360 1 1
361 1 1
489 1 1
372 1 2
380 1 2
250 1 1
252 1 4
254 1 1
469 1 1
